20	5
0	5	18	20	1	4	5
1	1	2
2	0
3	1	12
4	2	9	20
5	2	6	18
6	2	16	7
7	1	8
8	3	17	11	15
9	0
10	2	3	19
11	1	13
12	1	14
13	0
14	1	21
15	1	21
16	1	21
17	1	21
18	1	21
19	1	21
20	1	21
21	0
0	0	0	0	0	0	0
1	3	5	5	3	2	4
2	3	5	2	2	3	1
3	9	4	4	2	1	4
4	1	5	2	2	4	3
5	5	2	1	4	4	1
6	5	2	3	1	5	1
7	7	5	4	4	1	3
8	9	1	3	1	1	3
9	3	3	3	2	1	2
10	1	5	4	4	5	2
11	1	5	1	1	1	3
12	1	1	3	4	3	3
13	6	4	2	1	5	1
14	5	5	2	2	4	3
15	6	4	2	5	5	5
16	3	2	2	3	5	4
17	5	1	3	3	1	2
18	7	2	1	5	3	4
19	1	3	5	5	5	3
20	5	3	5	5	3	3
21	0	0	0	0	0	0
9	8	9	8	7
